(set-logic ALL)
(declare-const BAV1 Bool)
(declare-const BAV2 Bool)
(declare-const BAV3 Bool)
(declare-sort Index 0)
(declare-sort Element 0)
(declare-fun a () (Array Index Element))
(declare-fun i1 () Index)
(declare-fun i2 () Index)
(assert (not (=> (= i1 i2) (= (select a i1) (select a i2)))))
(assert (= BAV1 (=> (= i1 i2) (= (select a i1) (select a i2)))))
(assert (= BAV2 (= i1 i2)))
(assert (= BAV3 (= (select a i1) (select a i2))))
(check-sat)
(get-model)